c Circuit-CNF generated by TG-PRO v1.0 (c) Huan Chen and Joao Marques-Silva
p cnf 17 28
1 2 0
-1 -2 0
-3 -4 0
-3 -2 0
3 4 2 0
-2 -5 0
-2 -6 0
2 5 6 0
-7 -8 0
-7 -9 0
7 8 9 0
4 10 0
-4 -10 0
-11 4 0
-11 12 0
11 -4 -12 0
-9 -13 0
-9 -14 0
9 13 14 0
15 -9 0
15 -11 0
-15 9 11 0
16 -17 0
16 -11 0
-16 17 11 0
6 16 0
6 15 0
-6 -16 -15 0
